Version identifier: 20.1.0.0 | 2020-11-10 | 9bedb6d68
Tried aggregator 2 times.
MIP Presolve eliminated 922 rows and 563 columns.
MIP Presolve modified 1714 coefficients.
Aggregator did 101 substitutions.
Reduced MIP has 683 rows, 543 columns, and 2165 nonzeros.
Reduced MIP has 122 binaries, 421 generals, 0 SOSs, and 0 indicators.
Presolve time = 0.01 sec. (3.72 ticks)
Found incumbent of value 42.000000 after 0.02 sec. (6.29 ticks)
Probing fixed 20 vars, tightened 163 bounds.
Probing time = 0.00 sec. (0.50 ticks)
Tried aggregator 1 time.
Detecting symmetries...
MIP Presolve eliminated 300 rows and 20 columns.
MIP Presolve modified 27 coefficients.
Reduced MIP has 383 rows, 523 columns, and 1245 nonzeros.
Reduced MIP has 174 binaries, 349 generals, 0 SOSs, and 0 indicators.
Presolve time = 0.00 sec. (1.38 ticks)
Probing time = 0.00 sec. (0.11 ticks)
Clique table members: 21.
MIP emphasis: balance optimality and feasibility.
MIP search method: dynamic search.
Parallel mode: deterministic, using up to 24 threads.
Root relaxation solution time = 0.00 sec. (0.95 ticks)

        Nodes                                         Cuts/
   Node  Left     Objective  IInf  Best Integer    Best Bound    ItCnt     Gap

*     0+    0                           42.0000        0.0000           100.00%
*     0+    0                           11.0000        0.0000           100.00%
      0     0        0.0000    30       11.0000        0.0000      128  100.00%
*     0+    0                            6.0000        0.0000           100.00%
      0     0        1.0452   188        6.0000      Cuts: 79      306   82.58%
      0     0        1.3846    76        6.0000     Cuts: 102      348   76.92%
      0     0        2.0000    73        6.0000      Cuts: 20      362   66.67%
      0     0        2.0000   154        6.0000      Cuts: 23      398   66.67%
      0     0        2.0000    18        6.0000       Cuts: 8      402   66.67%
      0     0        2.0000    37        6.0000      Cuts: 21      423   66.67%
*     0+    0                            5.0000        2.0000            60.00%
      0     0        cutoff              5.0000        5.0000      423    0.00%
Elapsed time = 0.15 sec. (50.56 ticks, tree = 0.01 MB, solutions = 4)

Cover cuts applied:  2
Implied bound cuts applied:  20
Flow cuts applied:  1
Mixed integer rounding cuts applied:  2
Zero-half cuts applied:  32
Lift and project cuts applied:  1
Gomory fractional cuts applied:  10

Root node processing (before b&c):
  Real time             =    0.15 sec. (50.63 ticks)
Parallel b&c, 24 threads:
  Real time             =    0.00 sec. (0.00 ticks)
  Sync time (average)   =    0.00 sec.
  Wait time (average)   =    0.00 sec.
                          ------------
Total (root+branch&cut) =    0.15 sec. (50.63 ticks)

Solution status = Optimal
Solution LB = 5
Solution UB = 5
Runtime = 0.160611 seconds
	Command being timed: "/home/min/git_repos/CS598MEBProject/CNT-ILP/build/cnt -s 2 ./output/k6_n20/simC_c1_k6_n20_u1_s3_del02.input-left.cnp"
	User time (seconds): 1.96
	System time (seconds): 0.05
	Percent of CPU this job got: 1022%
	Elapsed (wall clock) time (h:mm:ss or m:ss): 0:00.19
	Average shared text size (kbytes): 0
	Average unshared data size (kbytes): 0
	Average stack size (kbytes): 0
	Average total size (kbytes): 0
	Maximum resident set size (kbytes): 49876
	Average resident set size (kbytes): 0
	Major (requiring I/O) page faults: 0
	Minor (reclaiming a frame) page faults: 9361
	Voluntary context switches: 1560
	Involuntary context switches: 256
	Swaps: 0
	File system inputs: 0
	File system outputs: 16
	Socket messages sent: 0
	Socket messages received: 0
	Signals delivered: 0
	Page size (bytes): 4096
	Exit status: 0
